p cnf 231 759 
-1  2 0 
-3  2 0 
 1  3 -2 0 
 1 -4 0 
 3 -4 0 
-1 -3  4 0 
 2 -4 0 
-5  6 0 
-7  6 0 
 5  7 -6 0 
 5 -8 0 
 7 -8 0 
-5 -7  8 0 
 6 -8 0 
-2  9 0 
-8  9 0 
 2  8 -9 0 
 2 -10 0 
 8 -10 0 
-2 -8  10 0 
 9 -10 0 
-4  11 0 
-6  11 0 
 4  6 -11 0 
 4 -12 0 
 6 -12 0 
-4 -6  12 0 
 11 -12 0 
-9  13 0 
-11  13 0 
 9  11 -13 0 
 9 -14 0 
 11 -14 0 
-9 -11  14 0 
 13 -14 0 
-12  15 0 
-10  15 0 
 12  10 -15 0 
 12 -16 0 
 10 -16 0 
-12 -10  16 0 
 15 -16 0 
-17  18 0 
-19  18 0 
 17  19 -18 0 
 17 -20 0 
 19 -20 0 
-17 -19  20 0 
 18 -20 0 
-21  22 0 
-23  22 0 
 21  23 -22 0 
 21 -24 0 
 23 -24 0 
-21 -23  24 0 
 22 -24 0 
-18  25 0 
-24  25 0 
 18  24 -25 0 
 18 -26 0 
 24 -26 0 
-18 -24  26 0 
 25 -26 0 
-20  27 0 
-22  27 0 
 20  22 -27 0 
 20 -28 0 
 22 -28 0 
-20 -22  28 0 
 27 -28 0 
-25  29 0 
-27  29 0 
 25  27 -29 0 
 25 -30 0 
 27 -30 0 
-25 -27  30 0 
 29 -30 0 
-28  31 0 
-26  31 0 
 28  26 -31 0 
 28 -32 0 
 26 -32 0 
-28 -26  32 0 
 31 -32 0 
-13  33 0 
-32  33 0 
 13  32 -33 0 
 13 -34 0 
 32 -34 0 
-13 -32  34 0 
 33 -34 0 
-14  35 0 
-31  35 0 
 14  31 -35 0 
 14 -36 0 
 31 -36 0 
-14 -31  36 0 
 35 -36 0 
-15  37 0 
-30  37 0 
 15  30 -37 0 
 15 -38 0 
 30 -38 0 
-15 -30  38 0 
 37 -38 0 
-16  39 0 
-29  39 0 
 16  29 -39 0 
 16 -40 0 
 29 -40 0 
-16 -29  40 0 
 39 -40 0 
-33  41 0 
-37  41 0 
 33  37 -41 0 
 33 -42 0 
 37 -42 0 
-33 -37  42 0 
 41 -42 0 
-35  43 0 
-39  43 0 
 35  39 -43 0 
 35 -44 0 
 39 -44 0 
-35 -39  44 0 
 43 -44 0 
-41  45 0 
-43  45 0 
 41  43 -45 0 
 41 -46 0 
 43 -46 0 
-41 -43  46 0 
 45 -46 0 
-42  47 0 
-44  47 0 
 42  44 -47 0 
 42 -48 0 
 44 -48 0 
-42 -44  48 0 
 47 -48 0 
-40  49 0 
-36  49 0 
 40  36 -49 0 
 40 -50 0 
 36 -50 0 
-40 -36  50 0 
 49 -50 0 
-38  51 0 
-34  51 0 
 38  34 -51 0 
 38 -52 0 
 34 -52 0 
-38 -34  52 0 
 51 -52 0 
-49  53 0 
-51  53 0 
 49  51 -53 0 
 49 -54 0 
 51 -54 0 
-49 -51  54 0 
 53 -54 0 
-50  55 0 
-52  55 0 
 50  52 -55 0 
 50 -56 0 
 52 -56 0 
-50 -52  56 0 
 55 -56 0 
-57  58 0 
-59  58 0 
 57  59 -58 0 
 57 -60 0 
 59 -60 0 
-57 -59  60 0 
 58 -60 0 
-61  62 0 
-63  62 0 
 61  63 -62 0 
 61 -64 0 
 63 -64 0 
-61 -63  64 0 
 62 -64 0 
-58  65 0 
-64  65 0 
 58  64 -65 0 
 58 -66 0 
 64 -66 0 
-58 -64  66 0 
 65 -66 0 
-60  67 0 
-62  67 0 
 60  62 -67 0 
 60 -68 0 
 62 -68 0 
-60 -62  68 0 
 67 -68 0 
-65  69 0 
-67  69 0 
 65  67 -69 0 
 65 -70 0 
 67 -70 0 
-65 -67  70 0 
 69 -70 0 
-68  71 0 
-66  71 0 
 68  66 -71 0 
 68 -72 0 
 66 -72 0 
-68 -66  72 0 
 71 -72 0 
-73  74 0 
-75  74 0 
 73  75 -74 0 
 73 -76 0 
 75 -76 0 
-73 -75  76 0 
 74 -76 0 
-77  78 0 
-79  78 0 
 77  79 -78 0 
 77 -80 0 
 79 -80 0 
-77 -79  80 0 
 78 -80 0 
-74  81 0 
-80  81 0 
 74  80 -81 0 
 74 -82 0 
 80 -82 0 
-74 -80  82 0 
 81 -82 0 
-76  83 0 
-78  83 0 
 76  78 -83 0 
 76 -84 0 
 78 -84 0 
-76 -78  84 0 
 83 -84 0 
-81  85 0 
-83  85 0 
 81  83 -85 0 
 81 -86 0 
 83 -86 0 
-81 -83  86 0 
 85 -86 0 
-84  87 0 
-82  87 0 
 84  82 -87 0 
 84 -88 0 
 82 -88 0 
-84 -82  88 0 
 87 -88 0 
-69  89 0 
-88  89 0 
 69  88 -89 0 
 69 -90 0 
 88 -90 0 
-69 -88  90 0 
 89 -90 0 
-70  91 0 
-87  91 0 
 70  87 -91 0 
 70 -92 0 
 87 -92 0 
-70 -87  92 0 
 91 -92 0 
-71  93 0 
-86  93 0 
 71  86 -93 0 
 71 -94 0 
 86 -94 0 
-71 -86  94 0 
 93 -94 0 
-72  95 0 
-85  95 0 
 72  85 -95 0 
 72 -96 0 
 85 -96 0 
-72 -85  96 0 
 95 -96 0 
-89  97 0 
-93  97 0 
 89  93 -97 0 
 89 -98 0 
 93 -98 0 
-89 -93  98 0 
 97 -98 0 
-91  99 0 
-95  99 0 
 91  95 -99 0 
 91 -100 0 
 95 -100 0 
-91 -95  100 0 
 99 -100 0 
-97  101 0 
-99  101 0 
 97  99 -101 0 
 97 -102 0 
 99 -102 0 
-97 -99  102 0 
 101 -102 0 
-98  103 0 
-100  103 0 
 98  100 -103 0 
 98 -104 0 
 100 -104 0 
-98 -100  104 0 
 103 -104 0 
-96  105 0 
-92  105 0 
 96  92 -105 0 
 96 -106 0 
 92 -106 0 
-96 -92  106 0 
 105 -106 0 
-94  107 0 
-90  107 0 
 94  90 -107 0 
 94 -108 0 
 90 -108 0 
-94 -90  108 0 
 107 -108 0 
-105  109 0 
-107  109 0 
 105  107 -109 0 
 105 -110 0 
 107 -110 0 
-105 -107  110 0 
 109 -110 0 
-106  111 0 
-108  111 0 
 106  108 -111 0 
 106 -112 0 
 108 -112 0 
-106 -108  112 0 
 111 -112 0 
-45  113 0 
-112  113 0 
 45  112 -113 0 
-45 -112 0 
-46  114 0 
-111  114 0 
 46  111 -114 0 
-46 -111 0 
-47  115 0 
-110  115 0 
 47  110 -115 0 
-47 -110 0 
-48  116 0 
-109  116 0 
 48  109 -116 0 
-48 -109 0 
-53  117 0 
-104  117 0 
 53  104 -117 0 
-53 -104 0 
-54  118 0 
-103  118 0 
 54  103 -118 0 
-54 -103 0 
-55  119 0 
-102  119 0 
 55  102 -119 0 
-55 -102 0 
-56  120 0 
-101  120 0 
 56  101 -120 0 
-56 -101 0 
-113 -117 0 
-114 -118 0 
-115 -119 0 
-116 -120 0 
-1  121 0 
-3  121 0 
 1  3 -121 0 
 1 -122 0 
 3 -122 0 
-1 -3  122 0 
 121 -122 0 
-5  123 0 
-7  123 0 
 5  7 -123 0 
 5 -124 0 
 7 -124 0 
-5 -7  124 0 
 123 -124 0 
-121  125 0 
-124  125 0 
 121  124 -125 0 
 121 -126 0 
 124 -126 0 
-121 -124  126 0 
 125 -126 0 
-122  127 0 
-123  127 0 
 122  123 -127 0 
 122 -128 0 
 123 -128 0 
-122 -123  128 0 
 127 -128 0 
-125  129 0 
-127  129 0 
 125  127 -129 0 
 125 -130 0 
 127 -130 0 
-125 -127  130 0 
 129 -130 0 
-128  131 0 
-126  131 0 
 128  126 -131 0 
 128 -132 0 
 126 -132 0 
-128 -126  132 0 
 131 -132 0 
-17  133 0 
-19  133 0 
 17  19 -133 0 
 17 -134 0 
 19 -134 0 
-17 -19  134 0 
 133 -134 0 
-21  135 0 
-23  135 0 
 21  23 -135 0 
 21 -136 0 
 23 -136 0 
-21 -23  136 0 
 135 -136 0 
-133  137 0 
-136  137 0 
 133  136 -137 0 
 133 -138 0 
 136 -138 0 
-133 -136  138 0 
 137 -138 0 
-134  139 0 
-135  139 0 
 134  135 -139 0 
 134 -140 0 
 135 -140 0 
-134 -135  140 0 
 139 -140 0 
-137  141 0 
-139  141 0 
 137  139 -141 0 
 137 -142 0 
 139 -142 0 
-137 -139  142 0 
 141 -142 0 
-140  143 0 
-138  143 0 
 140  138 -143 0 
 140 -144 0 
 138 -144 0 
-140 -138  144 0 
 143 -144 0 
-129  145 0 
-144  145 0 
 129  144 -145 0 
 129 -146 0 
 144 -146 0 
-129 -144  146 0 
 145 -146 0 
-130  147 0 
-143  147 0 
 130  143 -147 0 
 130 -148 0 
 143 -148 0 
-130 -143  148 0 
 147 -148 0 
-131  149 0 
-142  149 0 
 131  142 -149 0 
 131 -150 0 
 142 -150 0 
-131 -142  150 0 
 149 -150 0 
-132  151 0 
-141  151 0 
 132  141 -151 0 
 132 -152 0 
 141 -152 0 
-132 -141  152 0 
 151 -152 0 
-145  153 0 
-149  153 0 
 145  149 -153 0 
 145 -154 0 
 149 -154 0 
-145 -149  154 0 
 153 -154 0 
-147  155 0 
-151  155 0 
 147  151 -155 0 
 147 -156 0 
 151 -156 0 
-147 -151  156 0 
 155 -156 0 
-153  157 0 
-155  157 0 
 153  155 -157 0 
 153 -158 0 
 155 -158 0 
-153 -155  158 0 
 157 -158 0 
-154  159 0 
-156  159 0 
 154  156 -159 0 
 154 -160 0 
 156 -160 0 
-154 -156  160 0 
 159 -160 0 
-152  161 0 
-148  161 0 
 152  148 -161 0 
 152 -162 0 
 148 -162 0 
-152 -148  162 0 
 161 -162 0 
-150  163 0 
-146  163 0 
 150  146 -163 0 
 150 -164 0 
 146 -164 0 
-150 -146  164 0 
 163 -164 0 
-161  165 0 
-163  165 0 
 161  163 -165 0 
 161 -166 0 
 163 -166 0 
-161 -163  166 0 
 165 -166 0 
-162  167 0 
-164  167 0 
 162  164 -167 0 
 162 -168 0 
 164 -168 0 
-162 -164  168 0 
 167 -168 0 
-57  169 0 
-59  169 0 
 57  59 -169 0 
 57 -170 0 
 59 -170 0 
-57 -59  170 0 
 169 -170 0 
-61  171 0 
-63  171 0 
 61  63 -171 0 
 61 -172 0 
 63 -172 0 
-61 -63  172 0 
 171 -172 0 
-169  173 0 
-172  173 0 
 169  172 -173 0 
 169 -174 0 
 172 -174 0 
-169 -172  174 0 
 173 -174 0 
-170  175 0 
-171  175 0 
 170  171 -175 0 
 170 -176 0 
 171 -176 0 
-170 -171  176 0 
 175 -176 0 
-173  177 0 
-175  177 0 
 173  175 -177 0 
 173 -178 0 
 175 -178 0 
-173 -175  178 0 
 177 -178 0 
-176  179 0 
-174  179 0 
 176  174 -179 0 
 176 -180 0 
 174 -180 0 
-176 -174  180 0 
 179 -180 0 
-73  181 0 
-75  181 0 
 73  75 -181 0 
 73 -182 0 
 75 -182 0 
-73 -75  182 0 
 181 -182 0 
-77  183 0 
-79  183 0 
 77  79 -183 0 
 77 -184 0 
 79 -184 0 
-77 -79  184 0 
 183 -184 0 
-181  185 0 
-184  185 0 
 181  184 -185 0 
 181 -186 0 
 184 -186 0 
-181 -184  186 0 
 185 -186 0 
-182  187 0 
-183  187 0 
 182  183 -187 0 
 182 -188 0 
 183 -188 0 
-182 -183  188 0 
 187 -188 0 
-185  189 0 
-187  189 0 
 185  187 -189 0 
 185 -190 0 
 187 -190 0 
-185 -187  190 0 
 189 -190 0 
-188  191 0 
-186  191 0 
 188  186 -191 0 
 188 -192 0 
 186 -192 0 
-188 -186  192 0 
 191 -192 0 
-177  193 0 
-192  193 0 
 177  192 -193 0 
 177 -194 0 
 192 -194 0 
-177 -192  194 0 
 193 -194 0 
-178  195 0 
-191  195 0 
 178  191 -195 0 
 178 -196 0 
 191 -196 0 
-178 -191  196 0 
 195 -196 0 
-179  197 0 
-190  197 0 
 179  190 -197 0 
 179 -198 0 
 190 -198 0 
-179 -190  198 0 
 197 -198 0 
-180  199 0 
-189  199 0 
 180  189 -199 0 
 180 -200 0 
 189 -200 0 
-180 -189  200 0 
 199 -200 0 
-193  201 0 
-197  201 0 
 193  197 -201 0 
 193 -202 0 
 197 -202 0 
-193 -197  202 0 
 201 -202 0 
-195  203 0 
-199  203 0 
 195  199 -203 0 
 195 -204 0 
 199 -204 0 
-195 -199  204 0 
 203 -204 0 
-201  205 0 
-203  205 0 
 201  203 -205 0 
 201 -206 0 
 203 -206 0 
-201 -203  206 0 
 205 -206 0 
-202  207 0 
-204  207 0 
 202  204 -207 0 
 202 -208 0 
 204 -208 0 
-202 -204  208 0 
 207 -208 0 
-200  209 0 
-196  209 0 
 200  196 -209 0 
 200 -210 0 
 196 -210 0 
-200 -196  210 0 
 209 -210 0 
-198  211 0 
-194  211 0 
 198  194 -211 0 
 198 -212 0 
 194 -212 0 
-198 -194  212 0 
 211 -212 0 
-209  213 0 
-211  213 0 
 209  211 -213 0 
 209 -214 0 
 211 -214 0 
-209 -211  214 0 
 213 -214 0 
-210  215 0 
-212  215 0 
 210  212 -215 0 
 210 -216 0 
 212 -216 0 
-210 -212  216 0 
 215 -216 0 
-157  217 0 
-216  217 0 
 157  216 -217 0 
-158  218 0 
-215  218 0 
 158  215 -218 0 
-159  219 0 
-214  219 0 
 159  214 -219 0 
-160  220 0 
-213  220 0 
 160  213 -220 0 
-165  221 0 
-208  221 0 
 165  208 -221 0 
-166  222 0 
-207  222 0 
 166  207 -222 0 
-167  223 0 
-206  223 0 
 167  206 -223 0 
-168  224 0 
-205  224 0 
 168  205 -224 0 
 217  221 0 
 217 -225 0 
 221 -225 0 
-217 -221  225 0 
 226 -225 0 
 218  222 0 
 218 -227 0 
 222 -227 0 
-218 -222  227 0 
 226 -227 0 
 219  223 0 
 219 -228 0 
 223 -228 0 
-219 -223  228 0 
 226 -228 0 
 220  224 0 
 220 -229 0 
 224 -229 0 
-220 -224  229 0 
 226 -229 0 
-225  230 0 
-228  230 0 
 225  228 -230 0 
-227  231 0 
-229  231 0 
 227  229 -231 0 
 230  231 0 
